TCS_Benchmarks/redos_fix/corpus1_output_distinct_3301_3300_0_0.smt2
(set-logic QF_S)
(declare-const x String)
(assert (str.in.re x (re.inter  (re.++ (re.* (re.union (re.range "\u{00}" "\u{09}") (re.range "\u{0b}" "\u{0c}") (re.range "\u{0e}" "\u{84}") (re.range "\u{86}" "\u{ff}")) ) (re.+  (re.union  (str.to.re "\u{2d}") (re.union  (str.to.re "\u{39}") (re.union  (str.to.re "\u{2d}") (re.union (re.range "\u{41}" "\u{5a}") (re.range "\u{61}" "\u{7a}"))))) ))  (re.++ (re.* (re.union (re.range "\u{00}" "\u{09}") (re.range "\u{0b}" "\u{0c}") (re.range "\u{0e}" "\u{84}") (re.range "\u{86}" "\u{ff}")) ) (re.++  (re.++  (str.to.re "\u{2f}") (re.++  (str.to.re "\u{76}") (re.++  (str.to.re "\u{69}") (re.++  (str.to.re "\u{64}") (re.++  (str.to.re "\u{65}") (re.++  (str.to.re "\u{6f}") (re.++  (str.to.re "\u{73}") (re.++  (str.to.re "\u{2f}") (re.++  (str.to.re "\u{76}") (re.++  (str.to.re "\u{69}") (re.++  (str.to.re "\u{65}") (re.++  (str.to.re "\u{77}")  (str.to.re "\u{2f}"))))))))))))) (re.+  (re.union  (str.to.re "\u{2d}") (re.union  (str.to.re "\u{39}") (re.union  (str.to.re "\u{2d}") (re.union (re.range "\u{41}" "\u{5a}") (re.range "\u{61}" "\u{7a}"))))) ))) )))
(check-sat)
(get-model)