TCS_Benchmarks/redos_fix/corpus1_output_distinct_3301_3300_0_0.txt
(.*)([\-9\-A-Za-z]+)
(.*)(\/videos\/view\/)([\-9\-A-Za-z]+)